(declare-const v0 Bool)
(declare-const v1 Bool)
(declare-const v2 Bool)
(declare-const v3 Bool)
(declare-const v4 Bool)
(assert (edge (not v0) (or v1 (not v2))))
(assert (edge (or v0 (not v1) (not v3)) (or (not v1) (not v0))))
(assert (edge v4 (or (not v1) v3 v4)))
(assert (edge (or v1 (not v0)) (or (not v0) (not v2))))
(assert (edge (or v3 (not v4) (not v2)) (or v0 (not v1))))
(assert (edge true (or v1 v3 (not v0))))
(assert (edge (or v0 (not v1)) (or v0 (not v1) v2)))
(assert (edge (or v0 (not v3) (not v2)) true))
(assert (edge (or v1 (not v0)) v1))
(assert (edge (or v3 (not v4)) v3))
(assert (edge (or v4 (not v0)) (not v1)))
(assert (edge true (or (not v0) (not v3))))
(assert (edge v1 (or v1 (not v3) v4)))
(assert (edge (or (not v0) (not v1)) (or (not v3) v4 (not v0))))
(assert (edge (or (not v2) (not v3) (not v4)) (or (not v3) (not v2))))
(assert (edge true (or v0 (not v2))))
(assert (edge (or (not v0) (not v1)) (or v1 v4)))
(assert (edge (or (not v3) (not v2)) (or (not v1) (not v4))))
(assert (edge (or v1 (not v3) v4) true))
(assert (edge (or v4 (not v2)) (or (not v1) (not v4))))
(assert (not (edge true (not v4))))